7587816146195762020504,10,1,2,03,6,1,2,012,2,1,2,09,12,1,2,09,14,1,2,07,10,1,2,06,2,1,2,011,10,1,2,015,1,1,2,014,3,1,2,02,5,1,2,01,12,1,2,013,4,1,2,09,1,1,2,07,6,1,2,06,1,1,2,012,3,1,2,03,9,1,2,01,10,1,2,013,4,1,2,013,5,1,2,07,13,1,2,07,8,1,2,011,8,1,2,02,11,1,2,03,13,1,2,04,2,1,2,09,14,1,2,011,13,1,2,03,14,1,2,05,2,1,2,013,13,1,2,05,4,1,2,014,5,1,2,07,12,1,2,010,4,1,2,014,4,1,2,02,13,1,2,013,5,1,2,07,13,1,2,02,14,1,2,010,7,1,2,05,13,1,2,07,10,1,2,07,7,1,2,02,10,1,2,08,3,1,2,07,5,1,2,01,10,1,2,01,10,1,2,0